c 225_4_checker.cnf
c
c field = 225
c formula set type = 4_checker
c
p cnf 5 6
440 
442 
444 
446 
-438 
441 
443 
445 
447 
-439 
328 
358 
388 
418 
-298 
329 
359 
389 
419 
-299 
320 
352 
384 
416 
-288 
321 
353 
385 
417 
-289 
